# Solution for model r3_t9_m9_9 Batch Number: 1
# Finished Task: 9 / 9
# Makespan: 587.0, Total Distance: 287.0, Total Time: 0.2480
# R O S F Batch
0 0 4 0.0 0.0 -1
1 1 5 0.0 0.0 -1
2 2 9 0.0 0.0 -1
3 1 11 341.0 368.0 0
4 0 6 143.0 181.0 0
5 1 3 300.0 328.0 0
6 0 7 242.0 276.0 0
7 0 10 489.0 523.0 0
8 1 -1 461.0 489.0 0
9 2 -1 231.0 260.0 0
10 0 -1 557.0 587.0 0
11 1 8 385.0 420.0 0
